% demand
num_movements = 21;
loading_factor = [1900, 900, 1150, 1300, 1100, 1900, 1900, 1600, 1200, 950, 1150, 900, 1100, 1850, 1350, 1450, 1350, 900, 1350, 850, 1300];
pickup_time = [0, 0, 0, 0, 0, 1, 1, 2, 2, 2, 2, 2, 3, 4, 5, 6, 6, 6, 6, 6, 7];
delivery_time = [1, 2, 1, 2, 1, 2, 2, 5, 4, 3, 5, 4, 7, 5, 6, 7, 7, 8, 7, 7, 8];

% transporter definition
total_capacity = 7000;
num_decks = 3;
capacity = [3000, 1000, 3000];

% ways out of decks
num_ways_out = 1;
paths_out = array3d(decks, ways_out, decks, [
% ways out of deck d1
2, 3, 0, 

% ways out of deck d2
3, 0, 0, 

% ways out of deck d3
0, 0, 0,	

]);

